p tw 20 45
0 1
0 2
0 3
0 4
0 5
0 8
0 9
0 10
0 11
0 12
0 13
0 14
0 15
0 16
0 17
0 18
0 19
1 2
1 3
1 4
1 5
1 6
1 7
2 3
2 4
2 5
3 4
3 5
4 5
6 7
8 9
8 10
8 11
8 12
9 10
9 11
9 12
10 11
10 12
11 12
13 14
15 16
15 17
16 17
18 19
